c description: Random 3-CNF over 11 variables and 22 clauses
p cnf 11 22
3 -10 -11 0
6 -8 -10 0
-1 -5 6 0
2 -8 9 0
-2 8 -11 0
-5 8 10 0
-3 4 -7 0
3 5 -11 0
-2 3 8 0
1 -5 -10 0
-1 2 5 0
3 6 -9 0
-1 5 -11 0
2 4 -7 0
-7 -8 -11 0
-7 8 -9 0
-6 -9 -11 0
-3 -9 11 0
-3 -9 -10 0
-4 -9 -11 0
-2 6 -7 0
-3 -7 9 0